\ENCODING=ISO-8859-1
\Problem name: ilog.cplex

Minimize
 obj1: 105790 x1 + 95480 x2 + 90528 x3 + 98143 x4 + 107034 x5 + 95039 x6
       + 109104 x7 + 100704 x8 + 108768 x9 + 91285 x10 + 92763 x11 + 105565 x12
       + 91193 x13 + 107378 x14 + 97855 x15 + 92137 x16 + 94492 x17
       + 105517 x18 + 101303 x19 + 109829 x20 + 106994 x21 + 92698 x22
       + 99924 x23 + 97993 x24 + 101729 x25 + 95569 x26 + 93255 x27 + 94651 x28
       + 104480 x29 + 106185 x30 + 93217 x31 + 98236 x32 + 96999 x33
       + 101732 x34 + 107205 x35 + 103173 x36 + 90110 x37 + 98193 x38
       + 105167 x39 + 92319 x40 + 103201 x41 + 90434 x42 + 105734 x43
       + 97109 x44 + 98939 x45 + 99346 x46 + 101695 x47 + 109735 x48
       + 105058 x49 + 90438 x50 + 90849 x51 + 90740 x52 + 108653 x53
       + 107687 x54 + 104760 x55 + 100132 x56 + 92690 x57 + 101437 x58
       + 94920 x59 + 90455 x60 + 96204 x61 + 109654 x62 + 99508 x63 + 94691 x64
       + 95548 x65 + 107326 x66 + 93104 x67 + 109555 x68 + 107563 x69
       + 96776 x70 + 108872 x71 + 100947 x72 + 100960 x73 + 108467 x74
       + 90518 x75 + 90102 x76 + 108791 x77 + 108103 x78 + 94429 x79
       + 101413 x80 + 107688 x81 + 107091 x82 + 105709 x83 + 101266 x84
       + 109873 x85 + 100302 x86 + 94489 x87 + 99470 x88 + 91551 x89
       + 97061 x90 + 109628 x91 + 104396 x92 + 102218 x93 + 101841 x94
       + 98195 x95 + 96254 x96 + 106017 x97 + 102201 x98 + 106013 x99
       + 96847 x100 + 98476 x101 + 93269 x102 + 97049 x103 + 108728 x104
       + 99802 x105 + 90440 x106 + 107604 x107 + 91805 x108 + 109341 x109
       + 94927 x110 + 105023 x111 + 101299 x112 + 94932 x113 + 100431 x114
       + 90012 x115 + 107338 x116 + 105551 x117 + 103433 x118 + 106702 x119
       + 93558 x120 + 109725 x121 + 98295 x122 + 103237 x123 + 97896 x124
       + 91723 x125 + 106222 x126 + 96525 x127 + 101748 x128 + 101154 x129
       + 96216 x130 + 104611 x131 + 108201 x132 + 96363 x133 + 91240 x134
       + 99266 x135 + 103135 x136 + 106867 x137 + 102221 x138 + 104370 x139
       + 99936 x140 + 103979 x141 + 95994 x142 + 108826 x143 + 102205 x144
       + 101826 x145 + 98300 x146 + 90680 x147 + 102932 x148 + 105028 x149
       + 105740 x150 + 101210 x151 + 92555 x152 + 101979 x153 + 91560 x154
       + 98254 x155 + 109605 x156 + 105951 x157 + 106685 x158 + 109132 x159
       + 104526 x160 + 90205 x161 + 99671 x162 + 105289 x163 + 99784 x164
       + 107802 x165 + 107038 x166 + 103122 x167 + 97512 x168 + 92019 x169
       + 98935 x170 + 108454 x171 + 109734 x172 + 99049 x173 + 104144 x174
       + 95733 x175 + 105564 x176 + 101109 x177 + 103166 x178 + 97267 x179
       + 104839 x180 + 98257 x181 + 99785 x182 + 106608 x183 + 94185 x184
       + 100382 x185 + 102266 x186 + 99798 x187 + 99669 x188 + 103757 x189
       + 104427 x190 + 109074 x191 + 91737 x192 + 99895 x193 + 108371 x194
       + 97359 x195 + 98969 x196 + 106059 x197 + 90993 x198 + 106514 x199
       + 103027 x200 + 105516 x201 + 108184 x202 + 107891 x203 + 94179 x204
       + 93331 x205 + 100681 x206 + 95221 x207 + 106936 x208 + 99813 x209
       + 95661 x210 + 104045 x211 + 107393 x212 + 99331 x213 + 90813 x214
       + 102872 x215 + 94347 x216 + 103530 x217 + 100931 x218 + 107808 x219
       + 97363 x220 + 104839 x221 + 101028 x222 + 104614 x223 + 106731 x224
       + 98698 x225 + 94472 x226 + 99998 x227 + 92575 x228 + 91071 x229
       + 109853 x230 + 107381 x231 + 103413 x232 + 91583 x233 + 106097 x234
       + 101470 x235 + 98036 x236 + 102014 x237 + 101733 x238 + 90676 x239
       + 98845 x240 + 99623 x241 + 97642 x242 + 109604 x243 + 96984 x244
       + 96227 x245 + 93771 x246 + 102600 x247 + 95811 x248 + 94796 x249
       + 104965 x250 + 103078 x251 + 90052 x252 + 108784 x253 + 104853 x254
       + 108296 x255 + 94627 x256 + 103532 x257 + 98869 x258 + 97328 x259
       + 104216 x260 + 105048 x261 + 103121 x262 + 106499 x263 + 100331 x264
       + 98285 x265 + 109688 x266 + 102736 x267 + 92995 x268 + 99462 x269
       + 95730 x270 + 106720 x271 + 91557 x272 + 96808 x273 + 99477 x274
       + 100406 x275 + 90134 x276 + 94626 x277 + 107422 x278 + 96775 x279
       + 109733 x280 + 106667 x281 + 93919 x282 + 93592 x283 + 101332 x284
       + 106539 x285 + 106938 x286 + 97528 x287 + 102028 x288 + 95279 x289
       + 101845 x290 + 90141 x291 + 109816 x292 + 109134 x293 + 108872 x294
       + 93049 x295 + 101628 x296 + 104289 x297 + 99298 x298 + 96020 x299
       - 83693 x300 + 219369 x301 + 195528 x302 + 193046 x303 + 209587 x304
       + 207751 x305 + 198753 x306 + 209311 x307 + 197453 x308 + 215192 x309
       + 198067 x310 + 217851 x311 + 186834 x312 + 217093 x313 + 217105 x314
       + 210574 x315 + 180547 x316 + 186822 x317 + 206626 x318 + 200760 x319
       + 183305 x320 + 192916 x321 + 189678 x322 + 202686 x323 + 188878 x324
       + 192134 x325 + 203111 x326 + 205944 x327 + 180438 x328 + 218082 x329
       + 214833 x330 + 186228 x331 + 209128 x332 + 207685 x333 + 198413 x334
       + 218786 x335 + 204984 x336 + 184057 x337 + 212635 x338 + 218903 x339
       + 207200 x340 + 204379 x341 + 183316 x342 + 205670 x343 + 217319 x344
       + 185155 x345 + 198172 x346 + 191000 x347 + 199298 x348 + 194791 x349
       + 182778 x350 + 195226 x351 + 194479 x352 + 214686 x353 + 186590 x354
       + 203800 x355 + 207359 x356 + 195121 x357 + 212780 x358 + 186523 x359
       + 153265 x360
Subject To
 c1:   - x4 - x9 + x37 - x39 - x47 - x49 - x58  = 0
 c2:   - x64 - x69 + x97 - x99 - x107 - x109 - x118  = 0
 c3:   - x124 - x129 + x157 - x159 - x167 - x169 - x178  = 0
 c4:   - x184 - x189 + x217 - x219 - x227 - x229 - x238  = 0
 c5:   - x244 - x249 + x277 - x279 - x287 - x289 - x298  = 0
 c6:   x15 + x16 + x19 + x23 + x24 + x28 - x36 - x53 - x55 + x58 + x59  = 0
 c7:   x75 + x76 + x79 + x83 + x84 + x88 - x96 - x113 - x115 + x118 + x119  = 0
 c8:   x135 + x136 + x139 + x143 + x144 + x148 - x156 - x173 - x175 + x178
       + x179  = 0
 c9:   x195 + x196 + x199 + x203 + x204 + x208 - x216 - x233 - x235 + x238
       + x239  = 0
 c10:  x255 + x256 + x259 + x263 + x264 + x268 - x276 - x293 - x295 + x298
       + x299  = 0
 c11:  - x1 + x11 - x14 - x15 + x22 - x38 + x43 - x44 + x48 - x56 - x60  = 0
 c12:  - x61 + x71 - x74 - x75 + x82 - x98 + x103 - x104 + x108 - x116 - x120
        = 0
 c13:  - x121 + x131 - x134 - x135 + x142 - x158 + x163 - x164 + x168 - x176
       - x180  = 0
 c14:  - x181 + x191 - x194 - x195 + x202 - x218 + x223 - x224 + x228 - x236
       - x240  = -1
 c15:  - x241 + x251 - x254 - x255 + x262 - x278 + x283 - x284 + x288 - x296
       - x300  = 0
 c16:  - x12 - x16 + x30 - x40 + x47 - x50 + x51  = 0
 c17:  - x72 - x76 + x90 - x100 + x107 - x110 + x111  = 0
 c18:  - x132 - x136 + x150 - x160 + x167 - x170 + x171  = 0
 c19:  - x192 - x196 + x210 - x220 + x227 - x230 + x231  = 0
 c20:  - x252 - x256 + x270 - x280 + x287 - x290 + x291  = 0
 c21:  x7 - x10 - x13 + x17 - x20 - x32 - x59 + x60  = 0
 c22:  x67 - x70 - x73 + x77 - x80 - x92 - x119 + x120  = 0
 c23:  x127 - x130 - x133 + x137 - x140 - x152 - x179 + x180  = 0
 c24:  x187 - x190 - x193 + x197 - x200 - x212 - x239 + x240  = 0
 c25:  x247 - x250 - x253 + x257 - x260 - x272 - x299 + x300  = 0
 c26:  x4 - x5 - x8 - x23 - x31 + x32 + x33 + x46  = 0
 c27:  x64 - x65 - x68 - x83 - x91 + x92 + x93 + x106  = 0
 c28:  x124 - x125 - x128 - x143 - x151 + x152 + x153 + x166  = 0
 c29:  x184 - x185 - x188 - x203 - x211 + x212 + x213 + x226  = 0
 c30:  x244 - x245 - x248 - x263 - x271 + x272 + x273 + x286  = -1
 c31:  - x6 + x10 - x21 + x42 - x48 - x51  = 0
 c32:  - x66 + x70 - x81 + x102 - x108 - x111  = 0
 c33:  - x126 + x130 - x141 + x162 - x168 - x171  = 0
 c34:  - x186 + x190 - x201 + x222 - x228 - x231  = 0
 c35:  - x246 + x250 - x261 + x282 - x288 - x291  = 0
 c36:  x2 + x3 + x12 + x13 + x27 - x29 + x36 - x46 + x52  = 0
 c37:  x62 + x63 + x72 + x73 + x87 - x89 + x96 - x106 + x112  = 1
 c38:  x122 + x123 + x132 + x133 + x147 - x149 + x156 - x166 + x172  = 0
 c39:  x182 + x183 + x192 + x193 + x207 - x209 + x216 - x226 + x232  = 0
 c40:  x242 + x243 + x252 + x253 + x267 - x269 + x276 - x286 + x292  = 0
 c41:  - x3 + x20 - x34 + x38 + x55  = 0
 c42:  - x63 + x80 - x94 + x98 + x115  = 0
 c43:  - x123 + x140 - x154 + x158 + x175  = 0
 c44:  - x183 + x200 - x214 + x218 + x235  = 0
 c45:  - x243 + x260 - x274 + x278 + x295  = 1
 c46:  x1 + x31 + x34 + x35 + x41 - x42  = 0
 c47:  x61 + x91 + x94 + x95 + x101 - x102  = 0
 c48:  x121 + x151 + x154 + x155 + x161 - x162  = 0
 c49:  x181 + x211 + x214 + x215 + x221 - x222  = 0
 c50:  x241 + x271 + x274 + x275 + x281 - x282  = 0
 c51:  - x7 + x14 - x22 - x24 + x26 + x45 + x49 - x52 + x54  = -1
 c52:  - x67 + x74 - x82 - x84 + x86 + x105 + x109 - x112 + x114  = -1
 c53:  - x127 + x134 - x142 - x144 + x146 + x165 + x169 - x172 + x174  = 1
 c54:  - x187 + x194 - x202 - x204 + x206 + x225 + x229 - x232 + x234  = 0
 c55:  - x247 + x254 - x262 - x264 + x266 + x285 + x289 - x292 + x294  = 0
 c56:  x6 + x9 + x25 - x27 + x50 - x54 + x56  = 1
 c57:  x66 + x69 + x85 - x87 + x110 - x114 + x116  = 0
 c58:  x126 + x129 + x145 - x147 + x170 - x174 + x176  = -1
 c59:  x186 + x189 + x205 - x207 + x230 - x234 + x236  = 0
 c60:  x246 + x249 + x265 - x267 + x290 - x294 + x296  = 0
 c61:  x8 - x18 + x21 - x26 - x28 - x37 + x39 - x41 - x43 + x44 - x57  = 0
 c62:  x68 - x78 + x81 - x86 - x88 - x97 + x99 - x101 - x103 + x104 - x117  = 0
 c63:  x128 - x138 + x141 - x146 - x148 - x157 + x159 - x161 - x163 + x164
       - x177  = 0
 c64:  x188 - x198 + x201 - x206 - x208 - x217 + x219 - x221 - x223 + x224
       - x237  = 0
 c65:  x248 - x258 + x261 - x266 - x268 - x277 + x279 - x281 - x283 + x284
       - x297  = 0
 c66:  x5 - x17 + x18 + x29 - x33 + x40 - x45  = 0
 c67:  x65 - x77 + x78 + x89 - x93 + x100 - x105  = 0
 c68:  x125 - x137 + x138 + x149 - x153 + x160 - x165  = 0
 c69:  x185 - x197 + x198 + x209 - x213 + x220 - x225  = 1
 c70:  x245 - x257 + x258 + x269 - x273 + x280 - x285  = 0
 c71:  - x2 - x11 - x19 - x25 - x30 - x35 + x53 + x57  = 0
 c72:  - x62 - x71 - x79 - x85 - x90 - x95 + x113 + x117  = 0
 c73:  - x122 - x131 - x139 - x145 - x150 - x155 + x173 + x177  = 0
 c74:  - x182 - x191 - x199 - x205 - x210 - x215 + x233 + x237  = 0
 c75:  - x242 - x251 - x259 - x265 - x270 - x275 + x293 + x297  = 0
 c76:  4 x1 + 4 x61 + 4 x121 + 4 x181 + 4 x241 - 2 x301 <= 0
 c77:  4 x2 + 4 x62 + 4 x122 + 4 x182 + 4 x242 - 2 x302 <= 0
 c78:  4 x3 + 4 x63 + 4 x123 + 4 x183 + 4 x243 - 2 x303 <= 0
 c79:  4 x4 + 4 x64 + 4 x124 + 4 x184 + 4 x244 - 2 x304 <= 0
 c80:  4 x5 + 4 x65 + 4 x125 + 4 x185 + 4 x245 - 2 x305 <= 0
 c81:  4 x6 + 4 x66 + 4 x126 + 4 x186 + 4 x246 - 2 x306 <= 0
 c82:  4 x7 + 4 x67 + 4 x127 + 4 x187 + 4 x247 - 2 x307 <= 0
 c83:  4 x8 + 4 x68 + 4 x128 + 4 x188 + 4 x248 - 2 x308 <= 0
 c84:  4 x9 + 4 x69 + 4 x129 + 4 x189 + 4 x249 - 2 x309 <= 0
 c85:  4 x10 + 4 x70 + 4 x130 + 4 x190 + 4 x250 - 2 x310 <= 0
 c86:  4 x11 + 4 x71 + 4 x131 + 4 x191 + 4 x251 - 2 x311 <= 0
 c87:  4 x12 + 4 x72 + 4 x132 + 4 x192 + 4 x252 - 2 x312 <= 0
 c88:  4 x13 + 4 x73 + 4 x133 + 4 x193 + 4 x253 - 2 x313 <= 0
 c89:  4 x14 + 4 x74 + 4 x134 + 4 x194 + 4 x254 - 2 x314 <= 0
 c90:  4 x15 + 4 x75 + 4 x135 + 4 x195 + 4 x255 - 2 x315 <= 0
 c91:  4 x16 + 4 x76 + 4 x136 + 4 x196 + 4 x256 - 2 x316 <= 0
 c92:  4 x17 + 4 x77 + 4 x137 + 4 x197 + 4 x257 - 2 x317 <= 0
 c93:  4 x18 + 4 x78 + 4 x138 + 4 x198 + 4 x258 - 2 x318 <= 0
 c94:  4 x19 + 4 x79 + 4 x139 + 4 x199 + 4 x259 - 2 x319 <= 0
 c95:  4 x20 + 4 x80 + 4 x140 + 4 x200 + 4 x260 - 2 x320 <= 0
 c96:  4 x21 + 4 x81 + 4 x141 + 4 x201 + 4 x261 - 2 x321 <= 0
 c97:  4 x22 + 4 x82 + 4 x142 + 4 x202 + 4 x262 - 2 x322 <= 0
 c98:  4 x23 + 4 x83 + 4 x143 + 4 x203 + 4 x263 - 2 x323 <= 0
 c99:  4 x24 + 4 x84 + 4 x144 + 4 x204 + 4 x264 - 2 x324 <= 0
 c100: 4 x25 + 4 x85 + 4 x145 + 4 x205 + 4 x265 - 2 x325 <= 0
 c101: 4 x26 + 4 x86 + 4 x146 + 4 x206 + 4 x266 - 2 x326 <= 0
 c102: 4 x27 + 4 x87 + 4 x147 + 4 x207 + 4 x267 - 2 x327 <= 0
 c103: 4 x28 + 4 x88 + 4 x148 + 4 x208 + 4 x268 - 2 x328 <= 0
 c104: 4 x29 + 4 x89 + 4 x149 + 4 x209 + 4 x269 - 2 x329 <= 0
 c105: 4 x30 + 4 x90 + 4 x150 + 4 x210 + 4 x270 - 2 x330 <= 0
 c106: 4 x31 + 4 x91 + 4 x151 + 4 x211 + 4 x271 - 2 x331 <= 0
 c107: 4 x32 + 4 x92 + 4 x152 + 4 x212 + 4 x272 - 2 x332 <= 0
 c108: 4 x33 + 4 x93 + 4 x153 + 4 x213 + 4 x273 - 2 x333 <= 0
 c109: 4 x34 + 4 x94 + 4 x154 + 4 x214 + 4 x274 - 2 x334 <= 0
 c110: 4 x35 + 4 x95 + 4 x155 + 4 x215 + 4 x275 - 2 x335 <= 0
 c111: 4 x36 + 4 x96 + 4 x156 + 4 x216 + 4 x276 - 2 x336 <= 0
 c112: 4 x37 + 4 x97 + 4 x157 + 4 x217 + 4 x277 - 2 x337 <= 0
 c113: 4 x38 + 4 x98 + 4 x158 + 4 x218 + 4 x278 - 2 x338 <= 0
 c114: 4 x39 + 4 x99 + 4 x159 + 4 x219 + 4 x279 - 2 x339 <= 0
 c115: 4 x40 + 4 x100 + 4 x160 + 4 x220 + 4 x280 - 2 x340 <= 0
 c116: 4 x41 + 4 x101 + 4 x161 + 4 x221 + 4 x281 - 2 x341 <= 0
 c117: 4 x42 + 4 x102 + 4 x162 + 4 x222 + 4 x282 - 2 x342 <= 0
 c118: 4 x43 + 4 x103 + 4 x163 + 4 x223 + 4 x283 - 2 x343 <= 0
 c119: 4 x44 + 4 x104 + 4 x164 + 4 x224 + 4 x284 - 2 x344 <= 0
 c120: 4 x45 + 4 x105 + 4 x165 + 4 x225 + 4 x285 - 2 x345 <= 0
 c121: 4 x46 + 4 x106 + 4 x166 + 4 x226 + 4 x286 - 2 x346 <= 0
 c122: 4 x47 + 4 x107 + 4 x167 + 4 x227 + 4 x287 - 2 x347 <= 0
 c123: 4 x48 + 4 x108 + 4 x168 + 4 x228 + 4 x288 - 2 x348 <= 0
 c124: 4 x49 + 4 x109 + 4 x169 + 4 x229 + 4 x289 - 2 x349 <= 0
 c125: 4 x50 + 4 x110 + 4 x170 + 4 x230 + 4 x290 - 2 x350 <= 0
 c126: 4 x51 + 4 x111 + 4 x171 + 4 x231 + 4 x291 - 2 x351 <= 0
 c127: 4 x52 + 4 x112 + 4 x172 + 4 x232 + 4 x292 - 2 x352 <= 0
 c128: 4 x53 + 4 x113 + 4 x173 + 4 x233 + 4 x293 - 2 x353 <= 0
 c129: 4 x54 + 4 x114 + 4 x174 + 4 x234 + 4 x294 - 2 x354 <= 0
 c130: 4 x55 + 4 x115 + 4 x175 + 4 x235 + 4 x295 - 2 x355 <= 0
 c131: 4 x56 + 4 x116 + 4 x176 + 4 x236 + 4 x296 - 2 x356 <= 0
 c132: 4 x57 + 4 x117 + 4 x177 + 4 x237 + 4 x297 - 2 x357 <= 0
 c133: 4 x58 + 4 x118 + 4 x178 + 4 x238 + 4 x298 - 2 x358 <= 0
 c134: 4 x59 + 4 x119 + 4 x179 + 4 x239 + 4 x299 - 2 x359 <= 0
 c135: 4 x60 + 4 x120 + 4 x180 + 4 x240 + 4 x300 - 2 x360 <= 0
Bounds
 0 <= x1 <= 1
 0 <= x2 <= 1
 0 <= x3 <= 1
 0 <= x4 <= 1
 0 <= x5 <= 1
 0 <= x6 <= 1
 0 <= x7 <= 1
 0 <= x8 <= 1
 0 <= x9 <= 1
 0 <= x10 <= 1
 0 <= x11 <= 1
 0 <= x12 <= 1
 0 <= x13 <= 1
 0 <= x14 <= 1
 0 <= x15 <= 1
 0 <= x16 <= 1
 0 <= x17 <= 1
 0 <= x18 <= 1
 0 <= x19 <= 1
 0 <= x20 <= 1
 0 <= x21 <= 1
 0 <= x22 <= 1
 0 <= x23 <= 1
 0 <= x24 <= 1
 0 <= x25 <= 1
 0 <= x26 <= 1
 0 <= x27 <= 1
 0 <= x28 <= 1
 0 <= x29 <= 1
 0 <= x30 <= 1
 0 <= x31 <= 1
 0 <= x32 <= 1
 0 <= x33 <= 1
 0 <= x34 <= 1
 0 <= x35 <= 1
 0 <= x36 <= 1
 0 <= x37 <= 1
 0 <= x38 <= 1
 0 <= x39 <= 1
 0 <= x40 <= 1
 0 <= x41 <= 1
 0 <= x42 <= 1
 0 <= x43 <= 1
 0 <= x44 <= 1
 0 <= x45 <= 1
 0 <= x46 <= 1
 0 <= x47 <= 1
 0 <= x48 <= 1
 0 <= x49 <= 1
 0 <= x50 <= 1
 0 <= x51 <= 1
 0 <= x52 <= 1
 0 <= x53 <= 1
 0 <= x54 <= 1
 0 <= x55 <= 1
 0 <= x56 <= 1
 0 <= x57 <= 1
 0 <= x58 <= 1
 0 <= x59 <= 1
 0 <= x60 <= 1
 0 <= x61 <= 1
 0 <= x62 <= 1
 0 <= x63 <= 1
 0 <= x64 <= 1
 0 <= x65 <= 1
 0 <= x66 <= 1
 0 <= x67 <= 1
 0 <= x68 <= 1
 0 <= x69 <= 1
 0 <= x70 <= 1
 0 <= x71 <= 1
 0 <= x72 <= 1
 0 <= x73 <= 1
 0 <= x74 <= 1
 0 <= x75 <= 1
 0 <= x76 <= 1
 0 <= x77 <= 1
 0 <= x78 <= 1
 0 <= x79 <= 1
 0 <= x80 <= 1
 0 <= x81 <= 1
 0 <= x82 <= 1
 0 <= x83 <= 1
 0 <= x84 <= 1
 0 <= x85 <= 1
 0 <= x86 <= 1
 0 <= x87 <= 1
 0 <= x88 <= 1
 0 <= x89 <= 1
 0 <= x90 <= 1
 0 <= x91 <= 1
 0 <= x92 <= 1
 0 <= x93 <= 1
 0 <= x94 <= 1
 0 <= x95 <= 1
 0 <= x96 <= 1
 0 <= x97 <= 1
 0 <= x98 <= 1
 0 <= x99 <= 1
 0 <= x100 <= 1
 0 <= x101 <= 1
 0 <= x102 <= 1
 0 <= x103 <= 1
 0 <= x104 <= 1
 0 <= x105 <= 1
 0 <= x106 <= 1
 0 <= x107 <= 1
 0 <= x108 <= 1
 0 <= x109 <= 1
 0 <= x110 <= 1
 0 <= x111 <= 1
 0 <= x112 <= 1
 0 <= x113 <= 1
 0 <= x114 <= 1
 0 <= x115 <= 1
 0 <= x116 <= 1
 0 <= x117 <= 1
 0 <= x118 <= 1
 0 <= x119 <= 1
 0 <= x120 <= 1
 0 <= x121 <= 1
 0 <= x122 <= 1
 0 <= x123 <= 1
 0 <= x124 <= 1
 0 <= x125 <= 1
 0 <= x126 <= 1
 0 <= x127 <= 1
 0 <= x128 <= 1
 0 <= x129 <= 1
 0 <= x130 <= 1
 0 <= x131 <= 1
 0 <= x132 <= 1
 0 <= x133 <= 1
 0 <= x134 <= 1
 0 <= x135 <= 1
 0 <= x136 <= 1
 0 <= x137 <= 1
 0 <= x138 <= 1
 0 <= x139 <= 1
 0 <= x140 <= 1
 0 <= x141 <= 1
 0 <= x142 <= 1
 0 <= x143 <= 1
 0 <= x144 <= 1
 0 <= x145 <= 1
 0 <= x146 <= 1
 0 <= x147 <= 1
 0 <= x148 <= 1
 0 <= x149 <= 1
 0 <= x150 <= 1
 0 <= x151 <= 1
 0 <= x152 <= 1
 0 <= x153 <= 1
 0 <= x154 <= 1
 0 <= x155 <= 1
 0 <= x156 <= 1
 0 <= x157 <= 1
 0 <= x158 <= 1
 0 <= x159 <= 1
 0 <= x160 <= 1
 0 <= x161 <= 1
 0 <= x162 <= 1
 0 <= x163 <= 1
 0 <= x164 <= 1
 0 <= x165 <= 1
 0 <= x166 <= 1
 0 <= x167 <= 1
 0 <= x168 <= 1
 0 <= x169 <= 1
 0 <= x170 <= 1
 0 <= x171 <= 1
 0 <= x172 <= 1
 0 <= x173 <= 1
 0 <= x174 <= 1
 0 <= x175 <= 1
 0 <= x176 <= 1
 0 <= x177 <= 1
 0 <= x178 <= 1
 0 <= x179 <= 1
 0 <= x180 <= 1
 0 <= x181 <= 1
 0 <= x182 <= 1
 0 <= x183 <= 1
 0 <= x184 <= 1
 0 <= x185 <= 1
 0 <= x186 <= 1
 0 <= x187 <= 1
 0 <= x188 <= 1
 0 <= x189 <= 1
 0 <= x190 <= 1
 0 <= x191 <= 1
 0 <= x192 <= 1
 0 <= x193 <= 1
 0 <= x194 <= 1
 0 <= x195 <= 1
 0 <= x196 <= 1
 0 <= x197 <= 1
 0 <= x198 <= 1
 0 <= x199 <= 1
 0 <= x200 <= 1
 0 <= x201 <= 1
 0 <= x202 <= 1
 0 <= x203 <= 1
 0 <= x204 <= 1
 0 <= x205 <= 1
 0 <= x206 <= 1
 0 <= x207 <= 1
 0 <= x208 <= 1
 0 <= x209 <= 1
 0 <= x210 <= 1
 0 <= x211 <= 1
 0 <= x212 <= 1
 0 <= x213 <= 1
 0 <= x214 <= 1
 0 <= x215 <= 1
 0 <= x216 <= 1
 0 <= x217 <= 1
 0 <= x218 <= 1
 0 <= x219 <= 1
 0 <= x220 <= 1
 0 <= x221 <= 1
 0 <= x222 <= 1
 0 <= x223 <= 1
 0 <= x224 <= 1
 0 <= x225 <= 1
 0 <= x226 <= 1
 0 <= x227 <= 1
 0 <= x228 <= 1
 0 <= x229 <= 1
 0 <= x230 <= 1
 0 <= x231 <= 1
 0 <= x232 <= 1
 0 <= x233 <= 1
 0 <= x234 <= 1
 0 <= x235 <= 1
 0 <= x236 <= 1
 0 <= x237 <= 1
 0 <= x238 <= 1
 0 <= x239 <= 1
 0 <= x240 <= 1
 0 <= x241 <= 1
 0 <= x242 <= 1
 0 <= x243 <= 1
 0 <= x244 <= 1
 0 <= x245 <= 1
 0 <= x246 <= 1
 0 <= x247 <= 1
 0 <= x248 <= 1
 0 <= x249 <= 1
 0 <= x250 <= 1
 0 <= x251 <= 1
 0 <= x252 <= 1
 0 <= x253 <= 1
 0 <= x254 <= 1
 0 <= x255 <= 1
 0 <= x256 <= 1
 0 <= x257 <= 1
 0 <= x258 <= 1
 0 <= x259 <= 1
 0 <= x260 <= 1
 0 <= x261 <= 1
 0 <= x262 <= 1
 0 <= x263 <= 1
 0 <= x264 <= 1
 0 <= x265 <= 1
 0 <= x266 <= 1
 0 <= x267 <= 1
 0 <= x268 <= 1
 0 <= x269 <= 1
 0 <= x270 <= 1
 0 <= x271 <= 1
 0 <= x272 <= 1
 0 <= x273 <= 1
 0 <= x274 <= 1
 0 <= x275 <= 1
 0 <= x276 <= 1
 0 <= x277 <= 1
 0 <= x278 <= 1
 0 <= x279 <= 1
 0 <= x280 <= 1
 0 <= x281 <= 1
 0 <= x282 <= 1
 0 <= x283 <= 1
 0 <= x284 <= 1
 0 <= x285 <= 1
 0 <= x286 <= 1
 0 <= x287 <= 1
 0 <= x288 <= 1
 0 <= x289 <= 1
 0 <= x290 <= 1
 0 <= x291 <= 1
 0 <= x292 <= 1
 0 <= x293 <= 1
 0 <= x294 <= 1
 0 <= x295 <= 1
 0 <= x296 <= 1
 0 <= x297 <= 1
 0 <= x298 <= 1
 0 <= x299 <= 1
 0 <= x300 <= 1
 0 <= x301 <= 1
 0 <= x302 <= 1
 0 <= x303 <= 1
 0 <= x304 <= 1
 0 <= x305 <= 1
 0 <= x306 <= 1
 0 <= x307 <= 1
 0 <= x308 <= 1
 0 <= x309 <= 1
 0 <= x310 <= 1
 0 <= x311 <= 1
 0 <= x312 <= 1
 0 <= x313 <= 1
 0 <= x314 <= 1
 0 <= x315 <= 1
 0 <= x316 <= 1
 0 <= x317 <= 1
 0 <= x318 <= 1
 0 <= x319 <= 1
 0 <= x320 <= 1
 0 <= x321 <= 1
 0 <= x322 <= 1
 0 <= x323 <= 1
 0 <= x324 <= 1
 0 <= x325 <= 1
 0 <= x326 <= 1
 0 <= x327 <= 1
 0 <= x328 <= 1
 0 <= x329 <= 1
 0 <= x330 <= 1
 0 <= x331 <= 1
 0 <= x332 <= 1
 0 <= x333 <= 1
 0 <= x334 <= 1
 0 <= x335 <= 1
 0 <= x336 <= 1
 0 <= x337 <= 1
 0 <= x338 <= 1
 0 <= x339 <= 1
 0 <= x340 <= 1
 0 <= x341 <= 1
 0 <= x342 <= 1
 0 <= x343 <= 1
 0 <= x344 <= 1
 0 <= x345 <= 1
 0 <= x346 <= 1
 0 <= x347 <= 1
 0 <= x348 <= 1
 0 <= x349 <= 1
 0 <= x350 <= 1
 0 <= x351 <= 1
 0 <= x352 <= 1
 0 <= x353 <= 1
 0 <= x354 <= 1
 0 <= x355 <= 1
 0 <= x356 <= 1
 0 <= x357 <= 1
 0 <= x358 <= 1
 0 <= x359 <= 1
 0 <= x360 <= 1
Binaries
 x301  x302  x303  x304  x305  x306  x307  x308  x309  x310  x311  x312  x313 
 x314  x315  x316  x317  x318  x319  x320  x321  x322  x323  x324  x325  x326 
 x327  x328  x329  x330  x331  x332  x333  x334  x335  x336  x337  x338  x339 
 x340  x341  x342  x343  x344  x345  x346  x347  x348  x349  x350  x351  x352 
 x353  x354  x355  x356  x357  x358  x359  x360 
End
